NAME : local_6
TYPE : ATSP
DIMENSION : 8
EDGE_WEIGHT_TYPE : EXPLICIT
EDGE_WEIGHT_FORMAT : FULL_MATRIX
EDGE_WEIGHT_SECTION
0 825 509 881 694 10000000 658 685 
0 0 567 393 10000000 878 237 10000000 
0 567 0 820 613 717 556 799 
0 393 820 0 10000000 10000000 353 10000000 
0 10000000 613 10000000 0 927 10000000 347 
0 878 717 10000000 927 0 10000000 10000000 
0 237 556 353 10000000 10000000 0 10000000 
0 10000000 10000000 10000000 10000000 10000000 10000000 0 
EOF